Version identifier: 22.1.1.0 | 2022-11-28 | 9160aff4d
CPXPARAM_ClockType                               1
CPXPARAM_Read_DataCheck                          1
CPXPARAM_Threads                                 1
CPXPARAM_TimeLimit                               7200
CPXPARAM_MIP_Tolerances_AbsMIPGap                0
CPXPARAM_MIP_Tolerances_MIPGap                   0
CPXPARAM_MIP_Tolerances_Integrality              0
Tried aggregator 2 times.
MIP Presolve eliminated 124632 rows and 4 columns.
MIP Presolve modified 48348 coefficients.
Aggregator did 1890 substitutions.
Reduced MIP has 54774 rows, 9446 columns, and 360646 nonzeros.
Reduced MIP has 9446 binaries, 0 generals, 0 SOSs, and 0 indicators.
Presolve time = 2.34 sec. (1582.38 ticks)
Probing time = 0.02 sec. (5.90 ticks)
Tried aggregator 1 time.
Detecting symmetries...
MIP Presolve eliminated 65 rows and 0 columns.
Reduced MIP has 54709 rows, 9446 columns, and 359281 nonzeros.
Reduced MIP has 9446 binaries, 0 generals, 0 SOSs, and 0 indicators.
Presolve time = 0.85 sec. (583.03 ticks)
Probing time = 0.01 sec. (5.91 ticks)
Clique table members: 48880.
MIP emphasis: balance optimality and feasibility.
MIP search method: dynamic search.
Parallel mode: none, using 1 thread.
Root relaxation solution time = 786.93 sec. (365531.43 ticks)

        Nodes                                         Cuts/
   Node  Left     Objective  IInf  Best Integer    Best Bound    ItCnt     Gap

      0     0      940.9845  2252                    940.9845   394503         
      0     0      618.7655  1617                  Cuts: 1375   609912         
      0     0      603.0000  2103                   Cuts: 873   781354         
      0     0      600.0000  2367                  Cuts: 1051   889209         

GUB cover cuts applied:  2
Clique cuts applied:  601
Implied bound cuts applied:  8
Zero-half cuts applied:  834

Root node processing (before b&c):
  Real time             = 7200.11 sec. (2289963.22 ticks)
Sequential b&c:
  Real time             =    0.00 sec. (0.00 ticks)
                          ------------
Total (root+branch&cut) = 7200.11 sec. (2289963.22 ticks)
Solution is infeasible.

---------------------
@@@ MIP_time_limit_infeasible
Traceback (most recent call last):
  File "/scratch/scherif/DiverseSAT-journal_sup/DiverseSAT_Supplementary_Experiments/experiment-1/cplex/jobs/../solvers/CPLEX-BIN-SE.py", line 134, in <module>
    print(f">>> Benchmark {os.path.basename(cnf_file)} k {k} OPT {int(prob.solution.get_objective_value())}"
  File "/users/scherif/.local/lib/python3.9/site-packages/cplex/_internal/_subinterfaces.py", line 7211, in get_objective_value
    return CPX_PROC.getobjval(self._env._e, self._cplex._lp)
  File "/users/scherif/.local/lib/python3.9/site-packages/cplex/_internal/_procedural.py", line 2055, in getobjval
    check_status(env, status)
  File "/users/scherif/.local/lib/python3.9/site-packages/cplex/_internal/_procedural.py", line 249, in __call__
    raise CplexSolverError(error_string, env, status)
cplex.exceptions.errors.CplexSolverError: CPLEX Error  1217: No solution exists.
